h2                                      
   1.0000000000000000     
     6.7400000000000002    0.0000000000000000    0.0000000000000000
     0.0000000000000000    6.0000000000000000    0.0000000000000000
     0.0000000000000000    0.0000000000000000    6.0000000000000000
   H 
     2
Direct
  0.4451038575667655  0.5000000000000000  0.5000000000000000
  0.5548961424332344  0.5000000000000000  0.5000000000000000

  0.00000000E+00  0.00000000E+00  0.00000000E+00
  0.00000000E+00  0.00000000E+00  0.00000000E+00
