SYSTEM = h2
ISMEAR = 0
IBRION = 2
NELM = 1000
LSCALAPACK = .FALSE.
