Gamma-point only
 1       ! one k-point
rec      ! in units of reciprocal vector
 0 0 0 1 ! coordinates and weight
