%nproc=4
%chk=/home/chang/test/
# hf gen 6d 10f nosymm Scf(maxcycle=1000,verytight) int(grid=ultrafine)

H

-1   1
H    0.00000000   0.00000000   0.00000000

H     0 
S   3   1.00
     13.0100000              0.0196850        
      1.9620000              0.1379770        
      0.4446000              0.4781480        
S   1   1.00
      0.1220000              1.0000000        
S   1   1.00
      0.0297400              1.0000000        
P   1   1.00
      0.7270000              1.0000000        
P   1   1.00
      0.1410000              1.0000000        
****


