start h2o

geometry nocenter
 H 0 0 0
 O 1 0 0
 H 1 1 0
 symmetry c1
end

basis
H    S
     13.0100000              0.0196850        
      1.9620000              0.1379770        
      0.4446000              0.4781480        
H    S
      0.1220000              1.0000000        
H    S
      0.0297400              1.0000000        
H    P
      0.7270000              1.0000000        
H    P
      0.1410000              1.0000000        
#BASIS SET: (10s,5p,2d) -> [4s,3p,2d]
O    S
  11720.0000000              0.0007100             -0.0001600        
   1759.0000000              0.0054700             -0.0012630        
    400.8000000              0.0278370             -0.0062670        
    113.7000000              0.1048000             -0.0257160        
     37.0300000              0.2830620             -0.0709240        
     13.2700000              0.4487190             -0.1654110        
      5.0250000              0.2709520             -0.1169550        
      1.0130000              0.0154580              0.5573680        
O    S
      0.3023000              1.0000000        
O    S
      0.0789600              1.0000000        
O    P
     17.7000000              0.0430180        
      3.8540000              0.2289130        
      1.0460000              0.5087280        
O    P
      0.2753000              1.0000000        
O    P
      0.0685600              1.0000000        
O    D
      1.1850000              1.0000000        
O    D
      0.3320000              1.0000000
end

dft
 xc b3lyp
 print "kinetic_energy"
end

task dft energy
